22	3

10	10	10	

0	0	0	0	3	2	3	4	
6	3	5	2	3	6	7	8	
1	5	4	3	2	5	6	
5	5	2	2	2	6	7	
1	4	1	4	2	9	11	
2	5	5	4	3	9	11	12	
6	3	5	2	2	9	11	
8	2	4	4	2	9	10	
3	3	2	2	2	14	16	
6	3	2	4	1	13	
5	3	3	2	2	13	15	
1	4	1	4	1	13	
7	1	4	4	1	17	
5	2	2	2	2	17	19	
2	5	5	4	1	18	
1	1	5	4	1	17	
7	4	5	4	1	20	
1	3	2	3	1	20	
9	5	3	3	1	21	
3	2	4	6	1	22	
6	1	6	2	1	22	
0	0	0	0	0	
